20 10
95 61 54 36 43 47 74 41 90 4
43 53 16 31 67 48 84 97 61 3
53 89 71 20 2 28 3 24 45 88
30 24 82 57 69 69 76 10 44 44
9 93 83 44 65 59 56 41 22 52
35 95 63 10 88 11 5 82 60 24
40 79 65 65 50 3 31 17 4 96
37 96 91 86 14 72 95 56 5 2
94 82 79 63 94 66 78 98 53 60
99 51 12 26 58 56 64 89 81 96
31 26 48 45 96 43 19 43 59 95
60 57 90 96 8 87 2 80 69 13
65 50 56 75 55 32 52 83 45 88
56 63 40 79 90 27 95 65 99 86
92 28 77 72 12 13 32 65 63 40
24 96 69 86 15 48 27 35 48 54
40 90 44 91 64 43 13 25 58 2
87 87 52 82 88 24 95 53 63 14
83 14 41 46 57 75 60 52 72 76
31 93 60 81 89 83 71 42 18 47
